peakDumbCharging = 14800; 
Machine = anon_enum(16); 
machineSpeed = [3700,3700,3700,3700,3700,3700,3700,3700,3700,3700,3700,3700,3700,3700,3700,3700]; 
machineLoad = [3700,3700,3700,3700,3700,3700,3700,3700,3700,3700,3700,3700,3700,3700,3700,3700]; 
Car = anon_enum(13); 
demandCar = [18600,29560,10280,37360,7600,3440,17200,200,11640,21760,1440,9920,3000]; 
arrivalCar = [71,70,68,67,65,64,58,58,58,48,47,44,40]; 
departureCar = [77,80,72,82,68,66,67,59,63,56,49,49,49]; 
